J = 3;
K = 3;
Ej = [ 30,25,10 ];
Aj = [ 0.5,0.3,1.0 ];
Gj = [ 0,0,0 ];
Fj = [ 5,7,6 ];
Vj = [ 0.150,0.175,0.200 ];
Pj = [ 50,80,40 ];
Pj_max = [ 400,250,180 ];
Supj = [ 200,120,80 ];
Infj = [ 350,180,120 ];
P0j = [ 0,0,0 ];
Dk = [ 150,500,400 ];
Rk = [ 15,50,40 ];